c partition 2 of 2
p cnf 18 27
-16 1 -13 0
-5 9 17 0
-2 10 -14 0
16 -3 6 0
11 -1 -9 0
8 12 -1 0
-11 10 15 0
8 7 -4 0
12 -2 14 0
-14 -13 -18 0
-15 -3 16 0
14 16 -2 0
-2 -17 -9 0
13 10 -3 0
-15 -2 -7 0
10 4 -13 0
-13 15 -8 0
15 7 4 0
-5 -11 14 0
10 12 9 0
-15 -10 -2 0
-17 -16 -1 0
7 -3 12 0
-4 13 -6 0
12 -17 -3 0
-3 -5 -6 0
-17 6 7 0
